
Gurobi 9.5.0 (win64) logging started Tue Jun  7 18:34:53 2022

Set parameter LogFile to value "C:\Users\kmajd1\Documents\NNRepLayer_v2\demos\examples\tc7_walking_example\v2\repair_bound_constraint\repair_net/logs/opt_log_6_7_2022_18_34_38.log"
Gurobi Optimizer version 9.5.0 build v9.5.0rc5 (win64)
Thread count: 8 physical cores, 16 logical processors, using up to 16 threads
Optimize a model with 366 rows, 134 columns and 1237 nonzeros
Model fingerprint: 0x3866ee67
Model has 101 quadratic objective terms
Coefficient statistics:
  Matrix range     [1e-03, 1e+01]
  Objective range  [7e-04, 4e-01]
  QObjective range [2e-02, 2e+00]
  Bounds range     [1e+01, 4e+01]
  RHS range        [8e-04, 1e+01]
Presolve removed 210 rows and 5 columns
Presolve time: 0.01s
Presolved: 156 rows, 129 columns, 1017 nonzeros
Presolved model has 101 quadratic objective terms
Ordering time: 0.00s

Barrier statistics:
 Dense cols : 11
 AA' NZ     : 1.723e+03
 Factor NZ  : 2.589e+03
 Factor Ops : 5.657e+04 (less than 1 second per iteration)
 Threads    : 1

                  Objective                Residual
Iter       Primal          Dual         Primal    Dual     Compl     Time
   0   1.62236198e+07 -1.70175215e+07  5.75e+03 3.99e+02  8.61e+05     0s
   1   6.68220828e+06 -7.60529248e+06  3.59e+03 2.49e+02  5.85e+05     0s
   2   1.67689106e+04 -1.60076589e+06  1.91e+02 1.32e+01  4.80e+04     0s
   3   1.14506656e+02 -1.39529387e+06  1.91e-04 1.32e-05  4.44e+03     0s
   4   1.14289236e+02 -2.12486522e+03  1.15e-07 7.99e-09  7.13e+00     0s
   5   6.36154165e+01 -2.30536672e+02  1.34e-08 9.30e-10  9.37e-01     0s
   6   1.15172210e+01 -2.34240285e+01  2.13e-14 3.75e-14  1.11e-01     0s
   7   4.78357703e+00 -1.52988077e+00  4.97e-14 1.17e-14  2.01e-02     0s
   8   3.96839748e+00  2.31899957e+00  5.04e-13 1.33e-12  5.25e-03     0s
   9   3.83831635e+00  3.61042945e+00  8.85e-13 3.31e-13  7.26e-04     0s
  10   3.82026687e+00  3.81316538e+00  3.23e-12 2.63e-12  2.26e-05     0s
  11   3.81932098e+00  3.81924405e+00  1.20e-11 3.57e-11  2.45e-07     0s
  12   3.81929221e+00  3.81929030e+00  7.53e-10 5.67e-10  6.11e-09     0s
  13   3.81929051e+00  3.81929049e+00  1.86e-10 5.96e-10  6.90e-11     0s

Barrier solved model in 13 iterations and 0.04 seconds (0.00 work units)
Optimal objective 3.81929051e+00

